p cnf 27 67
a 12 7 0
e 1 2 3 4 5 6 8 9 10 11 13 14 15 16 17 18 19 20 21 22 23 24 25 26 27 0
-3 -2 0
-3 1 0
2 -1 3 0
3 2 -4 0
-3 -2 -4 0
3 -2 4 0
-3 2 4 0
-6 4 0
-6 5 0
-4 -5 6 0
-7 -1 0
-7 6 0
1 -6 7 0
9 -8 0
9 5 0
8 -5 -9 0
10 11 -12 0
-10 -11 -12 0
10 -11 12 0
-10 11 12 0
13 -9 0
13 12 0
9 -12 -13 0
2 14 0
-2 14 0
14 15 0
-14 15 0
16 -13 0
16 15 0
13 -15 -16 0
17 -7 0
17 -16 0
7 16 -17 0
18 -2 0
18 1 0
2 -1 -18 0
-20 -19 0
-20 -19 0
19 20 0
-22 -21 0
-22 21 0
-23 20 0
-23 -22 0
-20 22 23 0
11 19 -24 0
-11 -19 -24 0
11 -19 24 0
-11 19 24 0
23 24 -25 0
-23 -24 -25 0
23 -24 25 0
-23 24 25 0
-18 25 -26 0
18 -25 -26 0
-18 -25 26 0
18 25 26 0
-17 -26 -27 0
17 26 -27 0
-17 26 27 0
17 -26 27 0
18 12 -3 -25 -27 20 0
25 5 15 -17 -24 0
10 -7 22 21 2 0
23 -4 6 -24 0
-12 -1 -22 7 -6 -17 4 0
-2 7 5 -21 -6 1 -16 0
27 0
